************************************************************************
file with basedata            : me48_.bas
initial value random generator: 862206071
************************************************************************
projects                      :  1
jobs (incl. supersource/sink ):  22
horizon                       :  162
RESOURCES
  - renewable                 :  2   R
  - nonrenewable              :  0   N
  - doubly constrained        :  0   D
************************************************************************
PROJECT INFORMATION:
pronr.  #jobs rel.date duedate tardcost  MPM-Time
    1     20      0       26        1       26
************************************************************************
PRECEDENCE RELATIONS:
jobnr.    #modes  #successors   successors
   1        1          3           2   3   4
   2        3          3           6  12  16
   3        3          3          10  13  14
   4        3          3           5   8  15
   5        3          2          12  18
   6        3          3           7  11  15
   7        3          2           9  10
   8        3          3           9  13  16
   9        3          2          19  21
  10        3          1          19
  11        3          2          13  21
  12        3          1          19
  13        3          1          17
  14        3          2          15  21
  15        3          2          17  18
  16        3          2          17  18
  17        3          1          20
  18        3          1          20
  19        3          1          22
  20        3          1          22
  21        3          1          22
  22        1          0        
************************************************************************
REQUESTS/DURATIONS:
jobnr. mode duration  R 1  R 2
------------------------------------------------------------------------
  1      1     0       0    0
  2      1     2       3    6
         2     3       3    5
         3     5       3    3
  3      1     3       4    7
         2     4       4    5
         3     6       3    2
  4      1     5       6    8
         2     6       6    5
         3     9       6    3
  5      1     8       5    7
         2    10       3    4
         3    10       4    2
  6      1     1       5    3
         2     1       6    2
         3     5       4    2
  7      1     1       7    7
         2     3       6    7
         3     5       4    4
  8      1     2       2    7
         2     5       2    5
         3     9       2    4
  9      1     2       9    7
         2     5       7    6
         3    10       7    5
 10      1     9       8    7
         2     9       9    6
         3    10       8    6
 11      1     6       4    7
         2     6       9    4
         3     6       7    5
 12      1     4       4   10
         2     5       3    9
         3    10       1    9
 13      1     1       8    8
         2     3       7    4
         3     7       6    2
 14      1     1       5    4
         2     3       3    4
         3    10       1    3
 15      1     4       7    7
         2     9       7    1
         3     9       6    3
 16      1     8       8    9
         2     8       9    8
         3     9       6    6
 17      1     2       8   10
         2     4       7    8
         3     9       4    5
 18      1     2       7    7
         2     3       6    6
         3     4       3    2
 19      1     9       8    9
         2     9       9    7
         3    10       6    7
 20      1     2       6    7
         2    10       2    5
         3    10       1    6
 21      1     2       9    9
         2     3       8    9
         3     9       7    7
 22      1     0       0    0
************************************************************************
RESOURCEAVAILABILITIES:
  R 1  R 2
   48   44
************************************************************************
